water_flow/区画計算/whity 区画　計算/流入時間が早い順/whity_4/whity.sol
# Solution for model Objective
# Objective value = 1.5324242424242433e+02
d(1,a) 9.6666666666666696e+00
d(2,a) 1.6666666666666696e+00
d(3,a) 0
d(4,a) 1.3939393939393980e+00
d(5,a) 1.0181818181818187e+01
d(6,a) 1.0636363636363640e+01
d(7,a) 1.6303030303030312e+01
d(8,a) 1.5969696969696976e+01
d(9,a) 2.0575757575757585e+01
d(10,a) 3.0666666666666686e+01
d(11,a) 3.6181818181818201e+01
d(12,a) 0
x(15728,0,a) 1
x(1813,1,a) 0
x(1813,2,a) 0
x(1813,3,a) 0
x(1813,4,a) 1
x(1813,5,a) 0
x(1813,6,a) 0
x(1813,7,a) 0
x(1813,8,a) 0
x(1813,9,a) 0
x(1813,10,a) 0
x(1813,11,a) 0
x(1813,12,a) 0
x(1592,1,a) 0
x(1592,2,a) 0
x(1592,3,a) 1
x(1592,4,a) 0
x(1592,5,a) 0
x(1592,6,a) 0
x(1592,7,a) 0
x(1592,8,a) 0
x(1592,9,a) 0
x(1592,10,a) 0
x(1592,11,a) 0
x(1592,12,a) 0
x(6205,1,a) 1
x(6205,2,a) 0
x(6205,3,a) 0
x(6205,4,a) 0
x(6205,5,a) 0
x(6205,6,a) 0
x(6205,7,a) 0
x(6205,8,a) 0
x(6205,9,a) 0
x(6205,10,a) 0
x(6205,11,a) 0
x(6205,12,a) 0
x(6686,1,a) 0
x(6686,2,a) 0
x(6686,3,a) 0
x(6686,4,a) 0
x(6686,5,a) 0
x(6686,6,a) 0
x(6686,7,a) 0
x(6686,8,a) 0
x(6686,9,a) 1
x(6686,10,a) 0
x(6686,11,a) 0
x(6686,12,a) 0
x(8236,1,a) 0
x(8236,2,a) 1
x(8236,3,a) 0
x(8236,4,a) 0
x(8236,5,a) 0
x(8236,6,a) 0
x(8236,7,a) 0
x(8236,8,a) 0
x(8236,9,a) 0
x(8236,10,a) 0
x(8236,11,a) 0
x(8236,12,a) 0
x(8169,1,a) 0
x(8169,2,a) 0
x(8169,3,a) 0
x(8169,4,a) 0
x(8169,5,a) 0
x(8169,6,a) 0
x(8169,7,a) 0
x(8169,8,a) 1
x(8169,9,a) 0
x(8169,10,a) 0
x(8169,11,a) 0
x(8169,12,a) 0
x(8643,1,a) 0
x(8643,2,a) 0
x(8643,3,a) 0
x(8643,4,a) 0
x(8643,5,a) 0
x(8643,6,a) 0
x(8643,7,a) 1
x(8643,8,a) 0
x(8643,9,a) 0
x(8643,10,a) 0
x(8643,11,a) 0
x(8643,12,a) 0
x(10635,1,a) 0
x(10635,2,a) 0
x(10635,3,a) 0
x(10635,4,a) 0
x(10635,5,a) 0
x(10635,6,a) 0
x(10635,7,a) 0
x(10635,8,a) 0
x(10635,9,a) 0
x(10635,10,a) 0
x(10635,11,a) 1
x(10635,12,a) 0
x(14140,1,a) 0
x(14140,2,a) 0
x(14140,3,a) 0
x(14140,4,a) 0
x(14140,5,a) 0
x(14140,6,a) 1
x(14140,7,a) 0
x(14140,8,a) 0
x(14140,9,a) 0
x(14140,10,a) 0
x(14140,11,a) 0
x(14140,12,a) 0
x(11087,1,a) 0
x(11087,2,a) 0
x(11087,3,a) 0
x(11087,4,a) 0
x(11087,5,a) 0
x(11087,6,a) 0
x(11087,7,a) 0
x(11087,8,a) 0
x(11087,9,a) 0
x(11087,10,a) 1
x(11087,11,a) 0
x(11087,12,a) 0
x(15728,1,a) 0
x(15728,2,a) 0
x(15728,3,a) 0
x(15728,4,a) 0
x(15728,5,a) 1
x(15728,6,a) 0
x(15728,7,a) 0
x(15728,8,a) 0
x(15728,9,a) 0
x(15728,10,a) 0
x(15728,11,a) 0
x(15728,12,a) 0
x(1813,0,a) 0
x(1592,0,a) 0
x(6205,0,a) 0
x(6686,0,a) 0
x(8236,0,a) 0
x(8169,0,a) 0
x(8643,0,a) 0
x(10635,0,a) 0
x(14140,0,a) 0
x(11087,0,a) 0
y(1813,1813,0,a) 0
y(1813,1813,1,a) 0
y(1813,1813,2,a) 0
y(1813,1813,3,a) 0
y(1813,1813,4,a) 0
y(1813,1813,5,a) 0
y(1813,1813,6,a) 0
y(1813,1813,7,a) 0
y(1813,1813,8,a) 0
y(1813,1813,9,a) 0
y(1813,1813,10,a) 0
y(1813,1813,11,a) 0
y(1592,1813,0,a) 0
y(1592,1813,1,a) 0
y(1592,1813,2,a) 0
y(1592,1813,3,a) 1
y(1592,1813,4,a) 0
y(1592,1813,5,a) 0
y(1592,1813,6,a) 0
y(1592,1813,7,a) 0
y(1592,1813,8,a) 0
y(1592,1813,9,a) 0
y(1592,1813,10,a) 0
y(1592,1813,11,a) 0
y(6205,1813,0,a) 0
y(6205,1813,1,a) 0
y(6205,1813,2,a) 0
y(6205,1813,3,a) 0
y(6205,1813,4,a) 0
y(6205,1813,5,a) 0
y(6205,1813,6,a) 0
y(6205,1813,7,a) 0
y(6205,1813,8,a) 0
y(6205,1813,9,a) 0
y(6205,1813,10,a) 0
y(6205,1813,11,a) 0
y(6686,1813,0,a) 0
y(6686,1813,1,a) 0
y(6686,1813,2,a) 0
y(6686,1813,3,a) 0
y(6686,1813,4,a) 0
y(6686,1813,5,a) 0
y(6686,1813,6,a) 0
y(6686,1813,7,a) 0
y(6686,1813,8,a) 0
y(6686,1813,9,a) 0
y(6686,1813,10,a) 0
y(6686,1813,11,a) 0
y(8236,1813,0,a) 0
y(8236,1813,1,a) 0
y(8236,1813,2,a) 0
y(8236,1813,3,a) 0
y(8236,1813,4,a) 0
y(8236,1813,5,a) 0
y(8236,1813,6,a) 0
y(8236,1813,7,a) 0
y(8236,1813,8,a) 0
y(8236,1813,9,a) 0
y(8236,1813,10,a) 0
y(8236,1813,11,a) 0
y(8169,1813,0,a) 0
y(8169,1813,1,a) 0
y(8169,1813,2,a) 0
y(8169,1813,3,a) 0
y(8169,1813,4,a) 0
y(8169,1813,5,a) 0
y(8169,1813,6,a) 0
y(8169,1813,7,a) 0
y(8169,1813,8,a) 0
y(8169,1813,9,a) 0
y(8169,1813,10,a) 0
y(8169,1813,11,a) 0
y(8643,1813,0,a) 0
y(8643,1813,1,a) 0
y(8643,1813,2,a) 0
y(8643,1813,3,a) 0
y(8643,1813,4,a) 0
y(8643,1813,5,a) 0
y(8643,1813,6,a) 0
y(8643,1813,7,a) 0
y(8643,1813,8,a) 0
y(8643,1813,9,a) 0
y(8643,1813,10,a) 0
y(8643,1813,11,a) 0
y(10635,1813,0,a) 0
y(10635,1813,1,a) 0
y(10635,1813,2,a) 0
y(10635,1813,3,a) 0
y(10635,1813,4,a) 0
y(10635,1813,5,a) 0
y(10635,1813,6,a) 0
y(10635,1813,7,a) 0
y(10635,1813,8,a) 0
y(10635,1813,9,a) 0
y(10635,1813,10,a) 0
y(10635,1813,11,a) 0
y(14140,1813,0,a) 0
y(14140,1813,1,a) 0
y(14140,1813,2,a) 0
y(14140,1813,3,a) 0
y(14140,1813,4,a) 0
y(14140,1813,5,a) 0
y(14140,1813,6,a) 0
y(14140,1813,7,a) 0
y(14140,1813,8,a) 0
y(14140,1813,9,a) 0
y(14140,1813,10,a) 0
y(14140,1813,11,a) 0
y(11087,1813,0,a) 0
y(11087,1813,1,a) 0
y(11087,1813,2,a) 0
y(11087,1813,3,a) 0
y(11087,1813,4,a) 0
y(11087,1813,5,a) 0
y(11087,1813,6,a) 0
y(11087,1813,7,a) 0
y(11087,1813,8,a) 0
y(11087,1813,9,a) 0
y(11087,1813,10,a) 0
y(11087,1813,11,a) 0
y(15728,1813,0,a) 0
y(15728,1813,1,a) 0
y(15728,1813,2,a) 0
y(15728,1813,3,a) 0
y(15728,1813,4,a) 0
y(15728,1813,5,a) 0
y(15728,1813,6,a) 0
y(15728,1813,7,a) 0
y(15728,1813,8,a) 0
y(15728,1813,9,a) 0
y(15728,1813,10,a) 0
y(15728,1813,11,a) 0
y(1592,1592,0,a) 0
y(1592,1592,1,a) 0
y(1592,1592,2,a) 0
y(1592,1592,3,a) 0
y(1592,1592,4,a) 0
y(1592,1592,5,a) 0
y(1592,1592,6,a) 0
y(1592,1592,7,a) 0
y(1592,1592,8,a) 0
y(1592,1592,9,a) 0
y(1592,1592,10,a) 0
y(1592,1592,11,a) 0
y(1813,1592,0,a) 0
y(1813,1592,1,a) 0
y(1813,1592,2,a) 0
y(1813,1592,3,a) 0
y(1813,1592,4,a) 0
y(1813,1592,5,a) 0
y(1813,1592,6,a) 0
y(1813,1592,7,a) 0
y(1813,1592,8,a) 0
y(1813,1592,9,a) 0
y(1813,1592,10,a) 0
y(1813,1592,11,a) 0
y(6205,1592,0,a) 0
y(6205,1592,1,a) 0
y(6205,1592,2,a) 0
y(6205,1592,3,a) 0
y(6205,1592,4,a) 0
y(6205,1592,5,a) 0
y(6205,1592,6,a) 0
y(6205,1592,7,a) 0
y(6205,1592,8,a) 0
y(6205,1592,9,a) 0
y(6205,1592,10,a) 0
y(6205,1592,11,a) 0
y(6686,1592,0,a) 0
y(6686,1592,1,a) 0
y(6686,1592,2,a) 0
y(6686,1592,3,a) 0
y(6686,1592,4,a) 0
y(6686,1592,5,a) 0
y(6686,1592,6,a) 0
y(6686,1592,7,a) 0
y(6686,1592,8,a) 0
y(6686,1592,9,a) 0
y(6686,1592,10,a) 0
y(6686,1592,11,a) 0
y(8236,1592,0,a) 0
y(8236,1592,1,a) 0
y(8236,1592,2,a) 1
y(8236,1592,3,a) 0
y(8236,1592,4,a) 0
y(8236,1592,5,a) 0
y(8236,1592,6,a) 0
y(8236,1592,7,a) 0
y(8236,1592,8,a) 0
y(8236,1592,9,a) 0
y(8236,1592,10,a) 0
y(8236,1592,11,a) 0
y(8169,1592,0,a) 0
y(8169,1592,1,a) 0
y(8169,1592,2,a) 0
y(8169,1592,3,a) 0
y(8169,1592,4,a) 0
y(8169,1592,5,a) 0
y(8169,1592,6,a) 0
y(8169,1592,7,a) 0
y(8169,1592,8,a) 0
y(8169,1592,9,a) 0
y(8169,1592,10,a) 0
y(8169,1592,11,a) 0
y(8643,1592,0,a) 0
y(8643,1592,1,a) 0
y(8643,1592,2,a) 0
y(8643,1592,3,a) 0
y(8643,1592,4,a) 0
y(8643,1592,5,a) 0
y(8643,1592,6,a) 0
y(8643,1592,7,a) 0
y(8643,1592,8,a) 0
y(8643,1592,9,a) 0
y(8643,1592,10,a) 0
y(8643,1592,11,a) 0
y(10635,1592,0,a) 0
y(10635,1592,1,a) 0
y(10635,1592,2,a) 0
y(10635,1592,3,a) 0
y(10635,1592,4,a) 0
y(10635,1592,5,a) 0
y(10635,1592,6,a) 0
y(10635,1592,7,a) 0
y(10635,1592,8,a) 0
y(10635,1592,9,a) 0
y(10635,1592,10,a) 0
y(10635,1592,11,a) 0
y(14140,1592,0,a) 0
y(14140,1592,1,a) 0
y(14140,1592,2,a) 0
y(14140,1592,3,a) 0
y(14140,1592,4,a) 0
y(14140,1592,5,a) 0
y(14140,1592,6,a) 0
y(14140,1592,7,a) 0
y(14140,1592,8,a) 0
y(14140,1592,9,a) 0
y(14140,1592,10,a) 0
y(14140,1592,11,a) 0
y(11087,1592,0,a) 0
y(11087,1592,1,a) 0
y(11087,1592,2,a) 0
y(11087,1592,3,a) 0
y(11087,1592,4,a) 0
y(11087,1592,5,a) 0
y(11087,1592,6,a) 0
y(11087,1592,7,a) 0
y(11087,1592,8,a) 0
y(11087,1592,9,a) 0
y(11087,1592,10,a) 0
y(11087,1592,11,a) 0
y(15728,1592,0,a) 0
y(15728,1592,1,a) 0
y(15728,1592,2,a) 0
y(15728,1592,3,a) 0
y(15728,1592,4,a) 0
y(15728,1592,5,a) 0
y(15728,1592,6,a) 0
y(15728,1592,7,a) 0
y(15728,1592,8,a) 0
y(15728,1592,9,a) 0
y(15728,1592,10,a) 0
y(15728,1592,11,a) 0
y(6205,6205,0,a) 0
y(6205,6205,1,a) 0
y(6205,6205,2,a) 0
y(6205,6205,3,a) 0
y(6205,6205,4,a) 0
y(6205,6205,5,a) 0
y(6205,6205,6,a) 0
y(6205,6205,7,a) 0
y(6205,6205,8,a) 0
y(6205,6205,9,a) 0
y(6205,6205,10,a) 0
y(6205,6205,11,a) 0
y(1813,6205,0,a) 0
y(1813,6205,1,a) 0
y(1813,6205,2,a) 0
y(1813,6205,3,a) 0
y(1813,6205,4,a) 0
y(1813,6205,5,a) 0
y(1813,6205,6,a) 0
y(1813,6205,7,a) 0
y(1813,6205,8,a) 0
y(1813,6205,9,a) 0
y(1813,6205,10,a) 0
y(1813,6205,11,a) 0
y(1592,6205,0,a) 0
y(1592,6205,1,a) 0
y(1592,6205,2,a) 0
y(1592,6205,3,a) 0
y(1592,6205,4,a) 0
y(1592,6205,5,a) 0
y(1592,6205,6,a) 0
y(1592,6205,7,a) 0
y(1592,6205,8,a) 0
y(1592,6205,9,a) 0
y(1592,6205,10,a) 0
y(1592,6205,11,a) 0
y(6686,6205,0,a) 0
y(6686,6205,1,a) 0
y(6686,6205,2,a) 0
y(6686,6205,3,a) 0
y(6686,6205,4,a) 0
y(6686,6205,5,a) 0
y(6686,6205,6,a) 0
y(6686,6205,7,a) 0
y(6686,6205,8,a) 0
y(6686,6205,9,a) 0
y(6686,6205,10,a) 0
y(6686,6205,11,a) 0
y(8236,6205,0,a) 0
y(8236,6205,1,a) 0
y(8236,6205,2,a) 0
y(8236,6205,3,a) 0
y(8236,6205,4,a) 0
y(8236,6205,5,a) 0
y(8236,6205,6,a) 0
y(8236,6205,7,a) 0
y(8236,6205,8,a) 0
y(8236,6205,9,a) 0
y(8236,6205,10,a) 0
y(8236,6205,11,a) 0
y(8169,6205,0,a) 0
y(8169,6205,1,a) 0
y(8169,6205,2,a) 0
y(8169,6205,3,a) 0
y(8169,6205,4,a) 0
y(8169,6205,5,a) 0
y(8169,6205,6,a) 0
y(8169,6205,7,a) 0
y(8169,6205,8,a) 0
y(8169,6205,9,a) 0
y(8169,6205,10,a) 0
y(8169,6205,11,a) 0
y(8643,6205,0,a) 0
y(8643,6205,1,a) 0
y(8643,6205,2,a) 0
y(8643,6205,3,a) 0
y(8643,6205,4,a) 0
y(8643,6205,5,a) 0
y(8643,6205,6,a) 0
y(8643,6205,7,a) 0
y(8643,6205,8,a) 0
y(8643,6205,9,a) 0
y(8643,6205,10,a) 0
y(8643,6205,11,a) 0
y(10635,6205,0,a) 0
y(10635,6205,1,a) 0
y(10635,6205,2,a) 0
y(10635,6205,3,a) 0
y(10635,6205,4,a) 0
y(10635,6205,5,a) 0
y(10635,6205,6,a) 0
y(10635,6205,7,a) 0
y(10635,6205,8,a) 0
y(10635,6205,9,a) 0
y(10635,6205,10,a) 0
y(10635,6205,11,a) 0
y(14140,6205,0,a) 0
y(14140,6205,1,a) 0
y(14140,6205,2,a) 0
y(14140,6205,3,a) 0
y(14140,6205,4,a) 0
y(14140,6205,5,a) 0
y(14140,6205,6,a) 0
y(14140,6205,7,a) 0
y(14140,6205,8,a) 0
y(14140,6205,9,a) 0
y(14140,6205,10,a) 0
y(14140,6205,11,a) 0
y(11087,6205,0,a) 0
y(11087,6205,1,a) 0
y(11087,6205,2,a) 0
y(11087,6205,3,a) 0
y(11087,6205,4,a) 0
y(11087,6205,5,a) 0
y(11087,6205,6,a) 0
y(11087,6205,7,a) 0
y(11087,6205,8,a) 0
y(11087,6205,9,a) 0
y(11087,6205,10,a) 0
y(11087,6205,11,a) 0
y(15728,6205,0,a) 1
y(15728,6205,1,a) 0
y(15728,6205,2,a) 0
y(15728,6205,3,a) 0
y(15728,6205,4,a) 0
y(15728,6205,5,a) 0
y(15728,6205,6,a) 0
y(15728,6205,7,a) 0
y(15728,6205,8,a) 0
y(15728,6205,9,a) 0
y(15728,6205,10,a) 0
y(15728,6205,11,a) 0
y(6686,6686,0,a) 0
y(6686,6686,1,a) 0
y(6686,6686,2,a) 0
y(6686,6686,3,a) 0
y(6686,6686,4,a) 0
y(6686,6686,5,a) 0
y(6686,6686,6,a) 0
y(6686,6686,7,a) 0
y(6686,6686,8,a) 0
y(6686,6686,9,a) 0
y(6686,6686,10,a) 0
y(6686,6686,11,a) 0
y(1813,6686,0,a) 0
y(1813,6686,1,a) 0
y(1813,6686,2,a) 0
y(1813,6686,3,a) 0
y(1813,6686,4,a) 0
y(1813,6686,5,a) 0
y(1813,6686,6,a) 0
y(1813,6686,7,a) 0
y(1813,6686,8,a) 0
y(1813,6686,9,a) 0
y(1813,6686,10,a) 0
y(1813,6686,11,a) 0
y(1592,6686,0,a) 0
y(1592,6686,1,a) 0
y(1592,6686,2,a) 0
y(1592,6686,3,a) 0
y(1592,6686,4,a) 0
y(1592,6686,5,a) 0
y(1592,6686,6,a) 0
y(1592,6686,7,a) 0
y(1592,6686,8,a) 0
y(1592,6686,9,a) 0
y(1592,6686,10,a) 0
y(1592,6686,11,a) 0
y(6205,6686,0,a) 0
y(6205,6686,1,a) 0
y(6205,6686,2,a) 0
y(6205,6686,3,a) 0
y(6205,6686,4,a) 0
y(6205,6686,5,a) 0
y(6205,6686,6,a) 0
y(6205,6686,7,a) 0
y(6205,6686,8,a) 0
y(6205,6686,9,a) 0
y(6205,6686,10,a) 0
y(6205,6686,11,a) 0
y(8236,6686,0,a) 0
y(8236,6686,1,a) 0
y(8236,6686,2,a) 0
y(8236,6686,3,a) 0
y(8236,6686,4,a) 0
y(8236,6686,5,a) 0
y(8236,6686,6,a) 0
y(8236,6686,7,a) 0
y(8236,6686,8,a) 0
y(8236,6686,9,a) 0
y(8236,6686,10,a) 0
y(8236,6686,11,a) 0
y(8169,6686,0,a) 0
y(8169,6686,1,a) 0
y(8169,6686,2,a) 0
y(8169,6686,3,a) 0
y(8169,6686,4,a) 0
y(8169,6686,5,a) 0
y(8169,6686,6,a) 0
y(8169,6686,7,a) 0
y(8169,6686,8,a) 1
y(8169,6686,9,a) 0
y(8169,6686,10,a) 0
y(8169,6686,11,a) 0
y(8643,6686,0,a) 0
y(8643,6686,1,a) 0
y(8643,6686,2,a) 0
y(8643,6686,3,a) 0
y(8643,6686,4,a) 0
y(8643,6686,5,a) 0
y(8643,6686,6,a) 0
y(8643,6686,7,a) 0
y(8643,6686,8,a) 0
y(8643,6686,9,a) 0
y(8643,6686,10,a) 0
y(8643,6686,11,a) 0
y(10635,6686,0,a) 0
y(10635,6686,1,a) 0
y(10635,6686,2,a) 0
y(10635,6686,3,a) 0
y(10635,6686,4,a) 0
y(10635,6686,5,a) 0
y(10635,6686,6,a) 0
y(10635,6686,7,a) 0
y(10635,6686,8,a) 0
y(10635,6686,9,a) 0
y(10635,6686,10,a) 0
y(10635,6686,11,a) 0
y(14140,6686,0,a) 0
y(14140,6686,1,a) 0
y(14140,6686,2,a) 0
y(14140,6686,3,a) 0
y(14140,6686,4,a) 0
y(14140,6686,5,a) 0
y(14140,6686,6,a) 0
y(14140,6686,7,a) 0
y(14140,6686,8,a) 0
y(14140,6686,9,a) 0
y(14140,6686,10,a) 0
y(14140,6686,11,a) 0
y(11087,6686,0,a) 0
y(11087,6686,1,a) 0
y(11087,6686,2,a) 0
y(11087,6686,3,a) 0
y(11087,6686,4,a) 0
y(11087,6686,5,a) 0
y(11087,6686,6,a) 0
y(11087,6686,7,a) 0
y(11087,6686,8,a) 0
y(11087,6686,9,a) 0
y(11087,6686,10,a) 0
y(11087,6686,11,a) 0
y(15728,6686,0,a) 0
y(15728,6686,1,a) 0
y(15728,6686,2,a) 0
y(15728,6686,3,a) 0
y(15728,6686,4,a) 0
y(15728,6686,5,a) 0
y(15728,6686,6,a) 0
y(15728,6686,7,a) 0
y(15728,6686,8,a) 0
y(15728,6686,9,a) 0
y(15728,6686,10,a) 0
y(15728,6686,11,a) 0
y(8236,8236,0,a) 0
y(8236,8236,1,a) 0
y(8236,8236,2,a) 0
y(8236,8236,3,a) 0
y(8236,8236,4,a) 0
y(8236,8236,5,a) 0
y(8236,8236,6,a) 0
y(8236,8236,7,a) 0
y(8236,8236,8,a) 0
y(8236,8236,9,a) 0
y(8236,8236,10,a) 0
y(8236,8236,11,a) 0
y(1813,8236,0,a) 0
y(1813,8236,1,a) 0
y(1813,8236,2,a) 0
y(1813,8236,3,a) 0
y(1813,8236,4,a) 0
y(1813,8236,5,a) 0
y(1813,8236,6,a) 0
y(1813,8236,7,a) 0
y(1813,8236,8,a) 0
y(1813,8236,9,a) 0
y(1813,8236,10,a) 0
y(1813,8236,11,a) 0
y(1592,8236,0,a) 0
y(1592,8236,1,a) 0
y(1592,8236,2,a) 0
y(1592,8236,3,a) 0
y(1592,8236,4,a) 0
y(1592,8236,5,a) 0
y(1592,8236,6,a) 0
y(1592,8236,7,a) 0
y(1592,8236,8,a) 0
y(1592,8236,9,a) 0
y(1592,8236,10,a) 0
y(1592,8236,11,a) 0
y(6205,8236,0,a) 0
y(6205,8236,1,a) 1
y(6205,8236,2,a) 0
y(6205,8236,3,a) 0
y(6205,8236,4,a) 0
y(6205,8236,5,a) 0
y(6205,8236,6,a) 0
y(6205,8236,7,a) 0
y(6205,8236,8,a) 0
y(6205,8236,9,a) 0
y(6205,8236,10,a) 0
y(6205,8236,11,a) 0
y(6686,8236,0,a) 0
y(6686,8236,1,a) 0
y(6686,8236,2,a) 0
y(6686,8236,3,a) 0
y(6686,8236,4,a) 0
y(6686,8236,5,a) 0
y(6686,8236,6,a) 0
y(6686,8236,7,a) 0
y(6686,8236,8,a) 0
y(6686,8236,9,a) 0
y(6686,8236,10,a) 0
y(6686,8236,11,a) 0
y(8169,8236,0,a) 0
y(8169,8236,1,a) 0
y(8169,8236,2,a) 0
y(8169,8236,3,a) 0
y(8169,8236,4,a) 0
y(8169,8236,5,a) 0
y(8169,8236,6,a) 0
y(8169,8236,7,a) 0
y(8169,8236,8,a) 0
y(8169,8236,9,a) 0
y(8169,8236,10,a) 0
y(8169,8236,11,a) 0
y(8643,8236,0,a) 0
y(8643,8236,1,a) 0
y(8643,8236,2,a) 0
y(8643,8236,3,a) 0
y(8643,8236,4,a) 0
y(8643,8236,5,a) 0
y(8643,8236,6,a) 0
y(8643,8236,7,a) 0
y(8643,8236,8,a) 0
y(8643,8236,9,a) 0
y(8643,8236,10,a) 0
y(8643,8236,11,a) 0
y(10635,8236,0,a) 0
y(10635,8236,1,a) 0
y(10635,8236,2,a) 0
y(10635,8236,3,a) 0
y(10635,8236,4,a) 0
y(10635,8236,5,a) 0
y(10635,8236,6,a) 0
y(10635,8236,7,a) 0
y(10635,8236,8,a) 0
y(10635,8236,9,a) 0
y(10635,8236,10,a) 0
y(10635,8236,11,a) 0
y(14140,8236,0,a) 0
y(14140,8236,1,a) 0
y(14140,8236,2,a) 0
y(14140,8236,3,a) 0
y(14140,8236,4,a) 0
y(14140,8236,5,a) 0
y(14140,8236,6,a) 0
y(14140,8236,7,a) 0
y(14140,8236,8,a) 0
y(14140,8236,9,a) 0
y(14140,8236,10,a) 0
y(14140,8236,11,a) 0
y(11087,8236,0,a) 0
y(11087,8236,1,a) 0
y(11087,8236,2,a) 0
y(11087,8236,3,a) 0
y(11087,8236,4,a) 0
y(11087,8236,5,a) 0
y(11087,8236,6,a) 0
y(11087,8236,7,a) 0
y(11087,8236,8,a) 0
y(11087,8236,9,a) 0
y(11087,8236,10,a) 0
y(11087,8236,11,a) 0
y(15728,8236,0,a) 0
y(15728,8236,1,a) 0
y(15728,8236,2,a) 0
y(15728,8236,3,a) 0
y(15728,8236,4,a) 0
y(15728,8236,5,a) 0
y(15728,8236,6,a) 0
y(15728,8236,7,a) 0
y(15728,8236,8,a) 0
y(15728,8236,9,a) 0
y(15728,8236,10,a) 0
y(15728,8236,11,a) 0
y(8169,8169,0,a) 0
y(8169,8169,1,a) 0
y(8169,8169,2,a) 0
y(8169,8169,3,a) 0
y(8169,8169,4,a) 0
y(8169,8169,5,a) 0
y(8169,8169,6,a) 0
y(8169,8169,7,a) 0
y(8169,8169,8,a) 0
y(8169,8169,9,a) 0
y(8169,8169,10,a) 0
y(8169,8169,11,a) 0
y(1813,8169,0,a) 0
y(1813,8169,1,a) 0
y(1813,8169,2,a) 0
y(1813,8169,3,a) 0
y(1813,8169,4,a) 0
y(1813,8169,5,a) 0
y(1813,8169,6,a) 0
y(1813,8169,7,a) 0
y(1813,8169,8,a) 0
y(1813,8169,9,a) 0
y(1813,8169,10,a) 0
y(1813,8169,11,a) 0
y(1592,8169,0,a) 0
y(1592,8169,1,a) 0
y(1592,8169,2,a) 0
y(1592,8169,3,a) 0
y(1592,8169,4,a) 0
y(1592,8169,5,a) 0
y(1592,8169,6,a) 0
y(1592,8169,7,a) 0
y(1592,8169,8,a) 0
y(1592,8169,9,a) 0
y(1592,8169,10,a) 0
y(1592,8169,11,a) 0
y(6205,8169,0,a) 0
y(6205,8169,1,a) 0
y(6205,8169,2,a) 0
y(6205,8169,3,a) 0
y(6205,8169,4,a) 0
y(6205,8169,5,a) 0
y(6205,8169,6,a) 0
y(6205,8169,7,a) 0
y(6205,8169,8,a) 0
y(6205,8169,9,a) 0
y(6205,8169,10,a) 0
y(6205,8169,11,a) 0
y(6686,8169,0,a) 0
y(6686,8169,1,a) 0
y(6686,8169,2,a) 0
y(6686,8169,3,a) 0
y(6686,8169,4,a) 0
y(6686,8169,5,a) 0
y(6686,8169,6,a) 0
y(6686,8169,7,a) 0
y(6686,8169,8,a) 0
y(6686,8169,9,a) 0
y(6686,8169,10,a) 0
y(6686,8169,11,a) 0
y(8236,8169,0,a) 0
y(8236,8169,1,a) 0
y(8236,8169,2,a) 0
y(8236,8169,3,a) 0
y(8236,8169,4,a) 0
y(8236,8169,5,a) 0
y(8236,8169,6,a) 0
y(8236,8169,7,a) 0
y(8236,8169,8,a) 0
y(8236,8169,9,a) 0
y(8236,8169,10,a) 0
y(8236,8169,11,a) 0
y(8643,8169,0,a) 0
y(8643,8169,1,a) 0
y(8643,8169,2,a) 0
y(8643,8169,3,a) 0
y(8643,8169,4,a) 0
y(8643,8169,5,a) 0
y(8643,8169,6,a) 0
y(8643,8169,7,a) 1
y(8643,8169,8,a) 0
y(8643,8169,9,a) 0
y(8643,8169,10,a) 0
y(8643,8169,11,a) 0
y(10635,8169,0,a) 0
y(10635,8169,1,a) 0
y(10635,8169,2,a) 0
y(10635,8169,3,a) 0
y(10635,8169,4,a) 0
y(10635,8169,5,a) 0
y(10635,8169,6,a) 0
y(10635,8169,7,a) 0
y(10635,8169,8,a) 0
y(10635,8169,9,a) 0
y(10635,8169,10,a) 0
y(10635,8169,11,a) 0
y(14140,8169,0,a) 0
y(14140,8169,1,a) 0
y(14140,8169,2,a) 0
y(14140,8169,3,a) 0
y(14140,8169,4,a) 0
y(14140,8169,5,a) 0
y(14140,8169,6,a) 0
y(14140,8169,7,a) 0
y(14140,8169,8,a) 0
y(14140,8169,9,a) 0
y(14140,8169,10,a) 0
y(14140,8169,11,a) 0
y(11087,8169,0,a) 0
y(11087,8169,1,a) 0
y(11087,8169,2,a) 0
y(11087,8169,3,a) 0
y(11087,8169,4,a) 0
y(11087,8169,5,a) 0
y(11087,8169,6,a) 0
y(11087,8169,7,a) 0
y(11087,8169,8,a) 0
y(11087,8169,9,a) 0
y(11087,8169,10,a) 0
y(11087,8169,11,a) 0
y(15728,8169,0,a) 0
y(15728,8169,1,a) 0
y(15728,8169,2,a) 0
y(15728,8169,3,a) 0
y(15728,8169,4,a) 0
y(15728,8169,5,a) 0
y(15728,8169,6,a) 0
y(15728,8169,7,a) 0
y(15728,8169,8,a) 0
y(15728,8169,9,a) 0
y(15728,8169,10,a) 0
y(15728,8169,11,a) 0
y(8643,8643,0,a) 0
y(8643,8643,1,a) 0
y(8643,8643,2,a) 0
y(8643,8643,3,a) 0
y(8643,8643,4,a) 0
y(8643,8643,5,a) 0
y(8643,8643,6,a) 0
y(8643,8643,7,a) 0
y(8643,8643,8,a) 0
y(8643,8643,9,a) 0
y(8643,8643,10,a) 0
y(8643,8643,11,a) 0
y(1813,8643,0,a) 0
y(1813,8643,1,a) 0
y(1813,8643,2,a) 0
y(1813,8643,3,a) 0
y(1813,8643,4,a) 0
y(1813,8643,5,a) 0
y(1813,8643,6,a) 0
y(1813,8643,7,a) 0
y(1813,8643,8,a) 0
y(1813,8643,9,a) 0
y(1813,8643,10,a) 0
y(1813,8643,11,a) 0
y(1592,8643,0,a) 0
y(1592,8643,1,a) 0
y(1592,8643,2,a) 0
y(1592,8643,3,a) 0
y(1592,8643,4,a) 0
y(1592,8643,5,a) 0
y(1592,8643,6,a) 0
y(1592,8643,7,a) 0
y(1592,8643,8,a) 0
y(1592,8643,9,a) 0
y(1592,8643,10,a) 0
y(1592,8643,11,a) 0
y(6205,8643,0,a) 0
y(6205,8643,1,a) 0
y(6205,8643,2,a) 0
y(6205,8643,3,a) 0
y(6205,8643,4,a) 0
y(6205,8643,5,a) 0
y(6205,8643,6,a) 0
y(6205,8643,7,a) 0
y(6205,8643,8,a) 0
y(6205,8643,9,a) 0
y(6205,8643,10,a) 0
y(6205,8643,11,a) 0
y(6686,8643,0,a) 0
y(6686,8643,1,a) 0
y(6686,8643,2,a) 0
y(6686,8643,3,a) 0
y(6686,8643,4,a) 0
y(6686,8643,5,a) 0
y(6686,8643,6,a) 0
y(6686,8643,7,a) 0
y(6686,8643,8,a) 0
y(6686,8643,9,a) 0
y(6686,8643,10,a) 0
y(6686,8643,11,a) 0
y(8236,8643,0,a) 0
y(8236,8643,1,a) 0
y(8236,8643,2,a) 0
y(8236,8643,3,a) 0
y(8236,8643,4,a) 0
y(8236,8643,5,a) 0
y(8236,8643,6,a) 0
y(8236,8643,7,a) 0
y(8236,8643,8,a) 0
y(8236,8643,9,a) 0
y(8236,8643,10,a) 0
y(8236,8643,11,a) 0
y(8169,8643,0,a) 0
y(8169,8643,1,a) 0
y(8169,8643,2,a) 0
y(8169,8643,3,a) 0
y(8169,8643,4,a) 0
y(8169,8643,5,a) 0
y(8169,8643,6,a) 0
y(8169,8643,7,a) 0
y(8169,8643,8,a) 0
y(8169,8643,9,a) 0
y(8169,8643,10,a) 0
y(8169,8643,11,a) 0
y(10635,8643,0,a) 0
y(10635,8643,1,a) 0
y(10635,8643,2,a) 0
y(10635,8643,3,a) 0
y(10635,8643,4,a) 0
y(10635,8643,5,a) 0
y(10635,8643,6,a) 0
y(10635,8643,7,a) 0
y(10635,8643,8,a) 0
y(10635,8643,9,a) 0
y(10635,8643,10,a) 0
y(10635,8643,11,a) 0
y(14140,8643,0,a) 0
y(14140,8643,1,a) 0
y(14140,8643,2,a) 0
y(14140,8643,3,a) 0
y(14140,8643,4,a) 0
y(14140,8643,5,a) 0
y(14140,8643,6,a) 1
y(14140,8643,7,a) 0
y(14140,8643,8,a) 0
y(14140,8643,9,a) 0
y(14140,8643,10,a) 0
y(14140,8643,11,a) 0
y(11087,8643,0,a) 0
y(11087,8643,1,a) 0
y(11087,8643,2,a) 0
y(11087,8643,3,a) 0
y(11087,8643,4,a) 0
y(11087,8643,5,a) 0
y(11087,8643,6,a) 0
y(11087,8643,7,a) 0
y(11087,8643,8,a) 0
y(11087,8643,9,a) 0
y(11087,8643,10,a) 0
y(11087,8643,11,a) 0
y(15728,8643,0,a) 0
y(15728,8643,1,a) 0
y(15728,8643,2,a) 0
y(15728,8643,3,a) 0
y(15728,8643,4,a) 0
y(15728,8643,5,a) 0
y(15728,8643,6,a) 0
y(15728,8643,7,a) 0
y(15728,8643,8,a) 0
y(15728,8643,9,a) 0
y(15728,8643,10,a) 0
y(15728,8643,11,a) 0
y(10635,10635,0,a) 0
y(10635,10635,1,a) 0
y(10635,10635,2,a) 0
y(10635,10635,3,a) 0
y(10635,10635,4,a) 0
y(10635,10635,5,a) 0
y(10635,10635,6,a) 0
y(10635,10635,7,a) 0
y(10635,10635,8,a) 0
y(10635,10635,9,a) 0
y(10635,10635,10,a) 0
y(10635,10635,11,a) 0
y(1813,10635,0,a) 0
y(1813,10635,1,a) 0
y(1813,10635,2,a) 0
y(1813,10635,3,a) 0
y(1813,10635,4,a) 0
y(1813,10635,5,a) 0
y(1813,10635,6,a) 0
y(1813,10635,7,a) 0
y(1813,10635,8,a) 0
y(1813,10635,9,a) 0
y(1813,10635,10,a) 0
y(1813,10635,11,a) 0
y(1592,10635,0,a) 0
y(1592,10635,1,a) 0
y(1592,10635,2,a) 0
y(1592,10635,3,a) 0
y(1592,10635,4,a) 0
y(1592,10635,5,a) 0
y(1592,10635,6,a) 0
y(1592,10635,7,a) 0
y(1592,10635,8,a) 0
y(1592,10635,9,a) 0
y(1592,10635,10,a) 0
y(1592,10635,11,a) 0
y(6205,10635,0,a) 0
y(6205,10635,1,a) 0
y(6205,10635,2,a) 0
y(6205,10635,3,a) 0
y(6205,10635,4,a) 0
y(6205,10635,5,a) 0
y(6205,10635,6,a) 0
y(6205,10635,7,a) 0
y(6205,10635,8,a) 0
y(6205,10635,9,a) 0
y(6205,10635,10,a) 0
y(6205,10635,11,a) 0
y(6686,10635,0,a) 0
y(6686,10635,1,a) 0
y(6686,10635,2,a) 0
y(6686,10635,3,a) 0
y(6686,10635,4,a) 0
y(6686,10635,5,a) 0
y(6686,10635,6,a) 0
y(6686,10635,7,a) 0
y(6686,10635,8,a) 0
y(6686,10635,9,a) 0
y(6686,10635,10,a) 0
y(6686,10635,11,a) 0
y(8236,10635,0,a) 0
y(8236,10635,1,a) 0
y(8236,10635,2,a) 0
y(8236,10635,3,a) 0
y(8236,10635,4,a) 0
y(8236,10635,5,a) 0
y(8236,10635,6,a) 0
y(8236,10635,7,a) 0
y(8236,10635,8,a) 0
y(8236,10635,9,a) 0
y(8236,10635,10,a) 0
y(8236,10635,11,a) 0
y(8169,10635,0,a) 0
y(8169,10635,1,a) 0
y(8169,10635,2,a) 0
y(8169,10635,3,a) 0
y(8169,10635,4,a) 0
y(8169,10635,5,a) 0
y(8169,10635,6,a) 0
y(8169,10635,7,a) 0
y(8169,10635,8,a) 0
y(8169,10635,9,a) 0
y(8169,10635,10,a) 0
y(8169,10635,11,a) 0
y(8643,10635,0,a) 0
y(8643,10635,1,a) 0
y(8643,10635,2,a) 0
y(8643,10635,3,a) 0
y(8643,10635,4,a) 0
y(8643,10635,5,a) 0
y(8643,10635,6,a) 0
y(8643,10635,7,a) 0
y(8643,10635,8,a) 0
y(8643,10635,9,a) 0
y(8643,10635,10,a) 0
y(8643,10635,11,a) 0
y(14140,10635,0,a) 0
y(14140,10635,1,a) 0
y(14140,10635,2,a) 0
y(14140,10635,3,a) 0
y(14140,10635,4,a) 0
y(14140,10635,5,a) 0
y(14140,10635,6,a) 0
y(14140,10635,7,a) 0
y(14140,10635,8,a) 0
y(14140,10635,9,a) 0
y(14140,10635,10,a) 0
y(14140,10635,11,a) 0
y(11087,10635,0,a) 0
y(11087,10635,1,a) 0
y(11087,10635,2,a) 0
y(11087,10635,3,a) 0
y(11087,10635,4,a) 0
y(11087,10635,5,a) 0
y(11087,10635,6,a) 0
y(11087,10635,7,a) 0
y(11087,10635,8,a) 0
y(11087,10635,9,a) 0
y(11087,10635,10,a) 1
y(11087,10635,11,a) 0
y(15728,10635,0,a) 0
y(15728,10635,1,a) 0
y(15728,10635,2,a) 0
y(15728,10635,3,a) 0
y(15728,10635,4,a) 0
y(15728,10635,5,a) 0
y(15728,10635,6,a) 0
y(15728,10635,7,a) 0
y(15728,10635,8,a) 0
y(15728,10635,9,a) 0
y(15728,10635,10,a) 0
y(15728,10635,11,a) 0
y(14140,14140,0,a) 0
y(14140,14140,1,a) 0
y(14140,14140,2,a) 0
y(14140,14140,3,a) 0
y(14140,14140,4,a) 0
y(14140,14140,5,a) 0
y(14140,14140,6,a) 0
y(14140,14140,7,a) 0
y(14140,14140,8,a) 0
y(14140,14140,9,a) 0
y(14140,14140,10,a) 0
y(14140,14140,11,a) 0
y(1813,14140,0,a) 0
y(1813,14140,1,a) 0
y(1813,14140,2,a) 0
y(1813,14140,3,a) 0
y(1813,14140,4,a) 0
y(1813,14140,5,a) 0
y(1813,14140,6,a) 0
y(1813,14140,7,a) 0
y(1813,14140,8,a) 0
y(1813,14140,9,a) 0
y(1813,14140,10,a) 0
y(1813,14140,11,a) 0
y(1592,14140,0,a) 0
y(1592,14140,1,a) 0
y(1592,14140,2,a) 0
y(1592,14140,3,a) 0
y(1592,14140,4,a) 0
y(1592,14140,5,a) 0
y(1592,14140,6,a) 0
y(1592,14140,7,a) 0
y(1592,14140,8,a) 0
y(1592,14140,9,a) 0
y(1592,14140,10,a) 0
y(1592,14140,11,a) 0
y(6205,14140,0,a) 0
y(6205,14140,1,a) 0
y(6205,14140,2,a) 0
y(6205,14140,3,a) 0
y(6205,14140,4,a) 0
y(6205,14140,5,a) 0
y(6205,14140,6,a) 0
y(6205,14140,7,a) 0
y(6205,14140,8,a) 0
y(6205,14140,9,a) 0
y(6205,14140,10,a) 0
y(6205,14140,11,a) 0
y(6686,14140,0,a) 0
y(6686,14140,1,a) 0
y(6686,14140,2,a) 0
y(6686,14140,3,a) 0
y(6686,14140,4,a) 0
y(6686,14140,5,a) 0
y(6686,14140,6,a) 0
y(6686,14140,7,a) 0
y(6686,14140,8,a) 0
y(6686,14140,9,a) 0
y(6686,14140,10,a) 0
y(6686,14140,11,a) 0
y(8236,14140,0,a) 0
y(8236,14140,1,a) 0
y(8236,14140,2,a) 0
y(8236,14140,3,a) 0
y(8236,14140,4,a) 0
y(8236,14140,5,a) 0
y(8236,14140,6,a) 0
y(8236,14140,7,a) 0
y(8236,14140,8,a) 0
y(8236,14140,9,a) 0
y(8236,14140,10,a) 0
y(8236,14140,11,a) 0
y(8169,14140,0,a) 0
y(8169,14140,1,a) 0
y(8169,14140,2,a) 0
y(8169,14140,3,a) 0
y(8169,14140,4,a) 0
y(8169,14140,5,a) 0
y(8169,14140,6,a) 0
y(8169,14140,7,a) 0
y(8169,14140,8,a) 0
y(8169,14140,9,a) 0
y(8169,14140,10,a) 0
y(8169,14140,11,a) 0
y(8643,14140,0,a) 0
y(8643,14140,1,a) 0
y(8643,14140,2,a) 0
y(8643,14140,3,a) 0
y(8643,14140,4,a) 0
y(8643,14140,5,a) 0
y(8643,14140,6,a) 0
y(8643,14140,7,a) 0
y(8643,14140,8,a) 0
y(8643,14140,9,a) 0
y(8643,14140,10,a) 0
y(8643,14140,11,a) 0
y(10635,14140,0,a) 0
y(10635,14140,1,a) 0
y(10635,14140,2,a) 0
y(10635,14140,3,a) 0
y(10635,14140,4,a) 0
y(10635,14140,5,a) 0
y(10635,14140,6,a) 0
y(10635,14140,7,a) 0
y(10635,14140,8,a) 0
y(10635,14140,9,a) 0
y(10635,14140,10,a) 0
y(10635,14140,11,a) 0
y(11087,14140,0,a) 0
y(11087,14140,1,a) 0
y(11087,14140,2,a) 0
y(11087,14140,3,a) 0
y(11087,14140,4,a) 0
y(11087,14140,5,a) 0
y(11087,14140,6,a) 0
y(11087,14140,7,a) 0
y(11087,14140,8,a) 0
y(11087,14140,9,a) 0
y(11087,14140,10,a) 0
y(11087,14140,11,a) 0
y(15728,14140,0,a) 0
y(15728,14140,1,a) 0
y(15728,14140,2,a) 0
y(15728,14140,3,a) 0
y(15728,14140,4,a) 0
y(15728,14140,5,a) 1
y(15728,14140,6,a) 0
y(15728,14140,7,a) 0
y(15728,14140,8,a) 0
y(15728,14140,9,a) 0
y(15728,14140,10,a) 0
y(15728,14140,11,a) 0
y(11087,11087,0,a) 0
y(11087,11087,1,a) 0
y(11087,11087,2,a) 0
y(11087,11087,3,a) 0
y(11087,11087,4,a) 0
y(11087,11087,5,a) 0
y(11087,11087,6,a) 0
y(11087,11087,7,a) 0
y(11087,11087,8,a) 0
y(11087,11087,9,a) 0
y(11087,11087,10,a) 0
y(11087,11087,11,a) 0
y(1813,11087,0,a) 0
y(1813,11087,1,a) 0
y(1813,11087,2,a) 0
y(1813,11087,3,a) 0
y(1813,11087,4,a) 0
y(1813,11087,5,a) 0
y(1813,11087,6,a) 0
y(1813,11087,7,a) 0
y(1813,11087,8,a) 0
y(1813,11087,9,a) 0
y(1813,11087,10,a) 0
y(1813,11087,11,a) 0
y(1592,11087,0,a) 0
y(1592,11087,1,a) 0
y(1592,11087,2,a) 0
y(1592,11087,3,a) 0
y(1592,11087,4,a) 0
y(1592,11087,5,a) 0
y(1592,11087,6,a) 0
y(1592,11087,7,a) 0
y(1592,11087,8,a) 0
y(1592,11087,9,a) 0
y(1592,11087,10,a) 0
y(1592,11087,11,a) 0
y(6205,11087,0,a) 0
y(6205,11087,1,a) 0
y(6205,11087,2,a) 0
y(6205,11087,3,a) 0
y(6205,11087,4,a) 0
y(6205,11087,5,a) 0
y(6205,11087,6,a) 0
y(6205,11087,7,a) 0
y(6205,11087,8,a) 0
y(6205,11087,9,a) 0
y(6205,11087,10,a) 0
y(6205,11087,11,a) 0
y(6686,11087,0,a) 0
y(6686,11087,1,a) 0
y(6686,11087,2,a) 0
y(6686,11087,3,a) 0
y(6686,11087,4,a) 0
y(6686,11087,5,a) 0
y(6686,11087,6,a) 0
y(6686,11087,7,a) 0
y(6686,11087,8,a) 0
y(6686,11087,9,a) 1
y(6686,11087,10,a) 0
y(6686,11087,11,a) 0
y(8236,11087,0,a) 0
y(8236,11087,1,a) 0
y(8236,11087,2,a) 0
y(8236,11087,3,a) 0
y(8236,11087,4,a) 0
y(8236,11087,5,a) 0
y(8236,11087,6,a) 0
y(8236,11087,7,a) 0
y(8236,11087,8,a) 0
y(8236,11087,9,a) 0
y(8236,11087,10,a) 0
y(8236,11087,11,a) 0
y(8169,11087,0,a) 0
y(8169,11087,1,a) 0
y(8169,11087,2,a) 0
y(8169,11087,3,a) 0
y(8169,11087,4,a) 0
y(8169,11087,5,a) 0
y(8169,11087,6,a) 0
y(8169,11087,7,a) 0
y(8169,11087,8,a) 0
y(8169,11087,9,a) 0
y(8169,11087,10,a) 0
y(8169,11087,11,a) 0
y(8643,11087,0,a) 0
y(8643,11087,1,a) 0
y(8643,11087,2,a) 0
y(8643,11087,3,a) 0
y(8643,11087,4,a) 0
y(8643,11087,5,a) 0
y(8643,11087,6,a) 0
y(8643,11087,7,a) 0
y(8643,11087,8,a) 0
y(8643,11087,9,a) 0
y(8643,11087,10,a) 0
y(8643,11087,11,a) 0
y(10635,11087,0,a) 0
y(10635,11087,1,a) 0
y(10635,11087,2,a) 0
y(10635,11087,3,a) 0
y(10635,11087,4,a) 0
y(10635,11087,5,a) 0
y(10635,11087,6,a) 0
y(10635,11087,7,a) 0
y(10635,11087,8,a) 0
y(10635,11087,9,a) 0
y(10635,11087,10,a) 0
y(10635,11087,11,a) 0
y(14140,11087,0,a) 0
y(14140,11087,1,a) 0
y(14140,11087,2,a) 0
y(14140,11087,3,a) 0
y(14140,11087,4,a) 0
y(14140,11087,5,a) 0
y(14140,11087,6,a) 0
y(14140,11087,7,a) 0
y(14140,11087,8,a) 0
y(14140,11087,9,a) 0
y(14140,11087,10,a) 0
y(14140,11087,11,a) 0
y(15728,11087,0,a) 0
y(15728,11087,1,a) 0
y(15728,11087,2,a) 0
y(15728,11087,3,a) 0
y(15728,11087,4,a) 0
y(15728,11087,5,a) 0
y(15728,11087,6,a) 0
y(15728,11087,7,a) 0
y(15728,11087,8,a) 0
y(15728,11087,9,a) 0
y(15728,11087,10,a) 0
y(15728,11087,11,a) 0
y(15728,15728,0,a) 0
y(15728,15728,1,a) 0
y(15728,15728,2,a) 0
y(15728,15728,3,a) 0
y(15728,15728,4,a) 0
y(15728,15728,5,a) 0
y(15728,15728,6,a) 0
y(15728,15728,7,a) 0
y(15728,15728,8,a) 0
y(15728,15728,9,a) 0
y(15728,15728,10,a) 0
y(15728,15728,11,a) 0
y(1813,15728,0,a) 0
y(1813,15728,1,a) 0
y(1813,15728,2,a) 0
y(1813,15728,3,a) 0
y(1813,15728,4,a) 1
y(1813,15728,5,a) 0
y(1813,15728,6,a) 0
y(1813,15728,7,a) 0
y(1813,15728,8,a) 0
y(1813,15728,9,a) 0
y(1813,15728,10,a) 0
y(1813,15728,11,a) 0
y(1592,15728,0,a) 0
y(1592,15728,1,a) 0
y(1592,15728,2,a) 0
y(1592,15728,3,a) 0
y(1592,15728,4,a) 0
y(1592,15728,5,a) 0
y(1592,15728,6,a) 0
y(1592,15728,7,a) 0
y(1592,15728,8,a) 0
y(1592,15728,9,a) 0
y(1592,15728,10,a) 0
y(1592,15728,11,a) 0
y(6205,15728,0,a) 0
y(6205,15728,1,a) 0
y(6205,15728,2,a) 0
y(6205,15728,3,a) 0
y(6205,15728,4,a) 0
y(6205,15728,5,a) 0
y(6205,15728,6,a) 0
y(6205,15728,7,a) 0
y(6205,15728,8,a) 0
y(6205,15728,9,a) 0
y(6205,15728,10,a) 0
y(6205,15728,11,a) 0
y(6686,15728,0,a) 0
y(6686,15728,1,a) 0
y(6686,15728,2,a) 0
y(6686,15728,3,a) 0
y(6686,15728,4,a) 0
y(6686,15728,5,a) 0
y(6686,15728,6,a) 0
y(6686,15728,7,a) 0
y(6686,15728,8,a) 0
y(6686,15728,9,a) 0
y(6686,15728,10,a) 0
y(6686,15728,11,a) 0
y(8236,15728,0,a) 0
y(8236,15728,1,a) 0
y(8236,15728,2,a) 0
y(8236,15728,3,a) 0
y(8236,15728,4,a) 0
y(8236,15728,5,a) 0
y(8236,15728,6,a) 0
y(8236,15728,7,a) 0
y(8236,15728,8,a) 0
y(8236,15728,9,a) 0
y(8236,15728,10,a) 0
y(8236,15728,11,a) 0
y(8169,15728,0,a) 0
y(8169,15728,1,a) 0
y(8169,15728,2,a) 0
y(8169,15728,3,a) 0
y(8169,15728,4,a) 0
y(8169,15728,5,a) 0
y(8169,15728,6,a) 0
y(8169,15728,7,a) 0
y(8169,15728,8,a) 0
y(8169,15728,9,a) 0
y(8169,15728,10,a) 0
y(8169,15728,11,a) 0
y(8643,15728,0,a) 0
y(8643,15728,1,a) 0
y(8643,15728,2,a) 0
y(8643,15728,3,a) 0
y(8643,15728,4,a) 0
y(8643,15728,5,a) 0
y(8643,15728,6,a) 0
y(8643,15728,7,a) 0
y(8643,15728,8,a) 0
y(8643,15728,9,a) 0
y(8643,15728,10,a) 0
y(8643,15728,11,a) 0
y(10635,15728,0,a) 0
y(10635,15728,1,a) 0
y(10635,15728,2,a) 0
y(10635,15728,3,a) 0
y(10635,15728,4,a) 0
y(10635,15728,5,a) 0
y(10635,15728,6,a) 0
y(10635,15728,7,a) 0
y(10635,15728,8,a) 0
y(10635,15728,9,a) 0
y(10635,15728,10,a) 0
y(10635,15728,11,a) 0
y(14140,15728,0,a) 0
y(14140,15728,1,a) 0
y(14140,15728,2,a) 0
y(14140,15728,3,a) 0
y(14140,15728,4,a) 0
y(14140,15728,5,a) 0
y(14140,15728,6,a) 0
y(14140,15728,7,a) 0
y(14140,15728,8,a) 0
y(14140,15728,9,a) 0
y(14140,15728,10,a) 0
y(14140,15728,11,a) 0
y(11087,15728,0,a) 0
y(11087,15728,1,a) 0
y(11087,15728,2,a) 0
y(11087,15728,3,a) 0
y(11087,15728,4,a) 0
y(11087,15728,5,a) 0
y(11087,15728,6,a) 0
y(11087,15728,7,a) 0
y(11087,15728,8,a) 0
y(11087,15728,9,a) 0
y(11087,15728,10,a) 0
y(11087,15728,11,a) 0
t(1,a) 1.0666666666666670e+01
t(2,a) 1.5666666666666670e+01
t(3,a) 2.2696969696969703e+01
t(4,a) 2.6393939393939398e+01
t(5,a) 3.9181818181818187e+01
t(6,a) 4.4636363636363640e+01
t(7,a) 5.1303030303030312e+01
t(8,a) 5.4969696969696976e+01
t(9,a) 5.9575757575757585e+01
t(10,a) 7.0666666666666686e+01
t(11,a) 7.9181818181818201e+01
t(12,a) 8.2181818181818201e+01
t_(1,a) 1
t_(2,a) 14
t_(3,a) 24
t_(4,a) 25
t_(5,a) 29
t_(6,a) 34
t_(7,a) 35
t_(8,a) 39
t_(9,a) 39
t_(10,a) 40
t_(11,a) 43
t_(12,a) 0
