water_flow/区画計算/whity 区画　計算/流入時間が早い順/whity_4/whity.log

Gurobi 7.0.1 (win64) logging started 11/28/17 14:56:53

Set parameter TimeLimit to value 86400
Set parameter Threads to value 4

Gurobi Optimizer version 7.0.1 build v7.0.1rc0 (win64)
Copyright (c) 2016, Gurobi Optimization, Inc.

Read LP format model from file whity.lp
Reading time = 0.03 seconds
Objective: 4439 rows, 1631 columns, 20807 nonzeros
Optimize a model with 4439 rows, 1631 columns and 20807 nonzeros
Variable types: 36 continuous, 1595 integer (0 binary)
Coefficient statistics:
  Matrix range     [7e-01, 5e+02]
  Objective range  [1e+00, 1e+00]
  Bounds range     [1e+00, 1e+00]
  RHS range        [1e+00, 5e+02]
Presolve removed 4439 rows and 1631 columns
Presolve time: 0.02s
Presolve: All rows and columns removed

Explored 0 nodes (0 simplex iterations) in 0.02 seconds
Thread count was 1 (of 20 available processors)

Solution count 1: 153.242 
Pool objective bound 153.242

Optimal solution found (tolerance 1.00e-04)
Best objective 1.532424242424e+02, best bound 1.532424242424e+02, gap 0.0000%

Wrote result file 'whity.sol'

